NAME : a18
COMMENT : drilling problem (Ludwig)
TYPE : TSP
DIMENSION: 18
EDGE_WEIGHT_TYPE : EUC_2D
NODE_COORD_SECTION
1 6.51190e+02 2.24439e+03
2 6.76600e+02 2.16820e+03
3 7.01990e+02 2.16820e+03
4 7.27400e+02 2.16820e+03
5 7.52790e+02 2.16820e+03
6 7.27400e+02 2.14279e+03
7 7.01990e+02 2.14279e+03
8 6.76600e+02 2.14279e+03
EOF
